
  22    4
  10   10   10   10

   0   0   0   0   0   4 2 3 4 5 
   3  10  10  10  10   4 11 9 8 7 
   3  10  10  10  10   2 7 6 
   5  10  10  10  10   1 6 
  10  10  10  10  10   1 6 
   1  10  10  10  10   3 11 10 9 
   1  10  10  10  10   3 15 12 10 
   8  10  10  10  10   3 15 12 10 
   1  10  10  10  10   4 21 16 13 12 
   6  10  10  10  10   3 21 17 13 
   4  10  10  10  10   2 15 12 
   4  10  10  10  10   1 14 
   3  10  10  10  10   1 14 
   4  10  10  10  10   3 20 19 18 
   4  10  10  10  10   1 17 
   5  10  10  10  10   1 17 
   9  10  10  10  10   2 19 18 
   6  10  10  10  10   1 22
   7  10  10  10  10   1 22
   6  10  10  10  10   1 22
   4  10  10  10  10   1 22
   0   0   0   0   0   0 
